263 5
10 10 10 10 10 

0 0 0 0 0 0 5 2 14 26 38 50 
0 0 0 0 0 0 3 3 5 12 
1 0 0 0 3 0 1 4 
7 0 0 0 7 0 3 11 8 6 
3 0 0 0 10 0 3 11 8 6 
9 0 0 0 5 0 2 10 7 
6 0 0 0 4 0 1 9 
6 0 0 0 6 0 1 9 
1 0 0 0 10 0 1 13 
6 0 0 0 10 0 1 13 
6 0 0 0 10 0 1 13 
8 0 0 0 10 0 1 13 
0 0 0 0 0 0 1 62 
0 0 0 0 0 0 4 15 16 17 22 
4 0 0 0 5 0 2 20 19 
5 0 0 0 10 0 1 18 
1 0 0 0 6 0 1 18 
3 0 0 0 6 0 1 19 
3 0 0 0 10 0 2 24 21 
4 0 0 0 9 0 1 21 
10 0 0 0 7 0 1 23 
1 0 0 0 10 0 1 23 
10 0 0 0 6 0 1 25 
7 0 0 0 6 0 1 25 
0 0 0 0 0 0 1 62 
0 0 0 0 0 0 3 27 31 33 
7 0 0 0 0 5 2 30 28 
3 0 0 0 0 5 1 29 
8 0 0 0 0 8 3 36 35 32 
8 0 0 0 0 10 3 36 35 32 
9 0 0 0 0 10 2 35 32 
2 0 0 0 0 8 1 34 
3 0 0 0 0 4 1 34 
10 0 0 0 0 10 1 37 
10 0 0 0 0 10 1 37 
2 0 0 0 0 5 1 37 
0 0 0 0 0 0 1 62 
0 0 0 0 0 0 5 39 45 46 47 48 
4 0 0 0 4 0 2 44 40 
4 0 0 0 5 0 1 41 
10 0 0 0 8 0 1 42 
4 0 0 0 10 0 1 43 
8 0 0 0 10 0 1 49 
7 0 0 0 5 0 1 49 
8 0 0 0 10 0 1 49 
8 0 0 0 8 0 1 49 
9 0 0 0 6 0 1 49 
2 0 0 0 9 0 1 49 
0 0 0 0 0 0 1 62 
0 0 0 0 0 0 5 51 53 55 56 58 
10 0 4 0 0 0 1 52 
7 0 7 0 0 0 2 60 54 
2 0 8 0 0 0 2 60 57 
7 0 8 0 0 0 1 57 
5 0 10 0 0 0 1 57 
8 0 7 0 0 0 1 57 
10 0 2 0 0 0 1 59 
6 0 10 0 0 0 1 59 
2 0 10 0 0 0 1 61 
10 0 9 0 0 0 1 61 
0 0 0 0 0 0 1 62 
0 0 0 0 0 0 5 63 75 87 99 111 
0 0 0 0 0 0 3 64 69 70 
10 0 0 0 3 0 3 73 67 65 
5 0 0 0 8 0 1 66 
2 0 0 0 10 0 2 71 68 
2 0 0 0 9 0 2 72 71 
6 0 0 0 8 0 1 72 
2 0 0 0 5 0 1 73 
3 0 0 0 6 0 1 71 
2 0 0 0 10 0 1 74 
9 0 0 0 7 0 1 74 
6 0 0 0 9 0 1 74 
0 0 0 0 0 0 1 123 
0 0 0 0 0 0 2 76 77 
2 0 0 5 0 0 2 79 78 
1 0 0 7 0 0 2 79 78 
1 0 0 6 0 0 2 81 80 
4 0 0 8 0 0 1 80 
1 0 0 10 0 0 2 85 82 
3 0 0 7 0 0 2 85 82 
3 0 0 8 0 0 2 84 83 
9 0 0 10 0 0 1 86 
4 0 0 5 0 0 1 86 
10 0 0 9 0 0 1 86 
0 0 0 0 0 0 1 123 
0 0 0 0 0 0 2 88 90 
7 0 0 0 4 0 3 97 96 89 
9 0 0 0 6 0 3 95 94 91 
7 0 0 0 9 0 2 94 92 
4 0 0 0 10 0 1 92 
5 0 0 0 7 0 1 93 
9 0 0 0 7 0 1 98 
5 0 0 0 10 0 1 98 
9 0 0 0 7 0 1 98 
3 0 0 0 8 0 1 98 
1 0 0 0 7 0 1 98 
0 0 0 0 0 0 1 123 
0 0 0 0 0 0 4 100 104 105 109 
4 0 0 0 0 4 2 107 101 
3 0 0 0 0 6 1 102 
6 0 0 0 0 4 1 103 
7 0 0 0 0 10 1 106 
10 0 0 0 0 10 1 108 
8 0 0 0 0 8 1 107 
2 0 0 0 0 4 1 110 
10 0 0 0 0 9 1 110 
2 0 0 0 0 10 1 110 
7 0 0 0 0 10 1 110 
0 0 0 0 0 0 1 123 
0 0 0 0 0 0 4 112 116 117 118 
1 6 0 0 0 0 1 113 
1 9 0 0 0 0 2 121 114 
3 8 0 0 0 0 2 120 115 
5 2 0 0 0 0 1 119 
2 9 0 0 0 0 1 120 
6 5 0 0 0 0 1 119 
7 9 0 0 0 0 1 119 
6 10 0 0 0 0 1 122 
8 10 0 0 0 0 1 122 
10 7 0 0 0 0 1 122 
0 0 0 0 0 0 1 123 
0 0 0 0 0 0 4 124 136 158 180 
0 0 0 0 0 0 4 125 127 128 134 
3 1 0 0 0 0 1 126 
10 8 0 0 0 0 3 133 132 129 
8 8 0 0 0 0 2 133 131 
5 10 0 0 0 0 2 132 131 
4 5 0 0 0 0 1 130 
4 9 0 0 0 0 1 131 
9 6 0 0 0 0 1 135 
4 10 0 0 0 0 1 135 
1 10 0 0 0 0 1 135 
2 8 0 0 0 0 1 135 
0 0 0 0 0 0 3 202 214 226 
0 0 0 0 0 0 5 137 153 154 155 156 
2 2 0 3 0 0 3 152 151 138 
9 6 0 10 0 0 3 150 149 139 
4 10 0 4 0 0 3 148 147 140 
7 8 0 6 0 0 1 141 
10 9 0 10 0 0 1 142 
10 9 0 8 0 0 1 143 
9 8 0 10 0 0 1 144 
1 7 0 7 0 0 1 145 
2 7 0 10 0 0 1 146 
4 6 0 7 0 0 1 157 
3 9 0 6 0 0 1 157 
5 9 0 4 0 0 1 157 
3 7 0 10 0 0 1 157 
2 8 0 9 0 0 1 157 
3 8 0 3 0 0 1 157 
6 10 0 10 0 0 1 157 
1 6 0 7 0 0 1 157 
3 4 0 7 0 0 1 157 
2 8 0 9 0 0 1 157 
10 9 0 10 0 0 1 157 
0 0 0 0 0 0 1 238 
0 0 0 0 0 0 4 159 166 177 178 
5 0 3 4 0 0 2 176 160 
2 0 8 5 0 0 2 175 161 
8 0 10 6 0 0 4 174 173 172 162 
1 0 6 6 0 0 2 170 163 
5 0 5 6 0 0 2 171 164 
6 0 10 7 0 0 1 165 
6 0 5 5 0 0 1 167 
1 0 4 9 0 0 2 170 169 
9 0 9 8 0 0 1 168 
10 0 10 10 0 0 1 169 
7 0 8 10 0 0 1 179 
1 0 10 5 0 0 1 179 
9 0 8 10 0 0 1 179 
1 0 10 10 0 0 1 179 
4 0 5 8 0 0 1 179 
3 0 6 6 0 0 1 179 
1 0 5 7 0 0 1 179 
6 0 8 9 0 0 1 179 
6 0 10 10 0 0 1 179 
5 0 10 9 0 0 1 179 
0 0 0 0 0 0 1 238 
0 0 0 0 0 0 1 181 
2 0 10 0 0 7 2 186 182 
2 0 2 0 0 9 1 183 
8 0 10 0 0 10 3 199 192 184 
6 0 4 0 0 10 3 200 191 185 
5 0 10 0 0 9 2 197 187 
10 0 8 0 0 7 4 199 197 191 188 
8 0 5 0 0 6 3 198 196 188 
5 0 4 0 0 3 3 195 194 189 
7 0 7 0 0 10 1 190 
10 0 7 0 0 5 1 193 
7 0 10 0 0 3 1 193 
9 0 6 0 0 5 1 196 
4 0 9 0 0 8 1 201 
8 0 10 0 0 7 1 201 
2 0 10 0 0 10 1 201 
5 0 7 0 0 10 1 201 
10 0 8 0 0 9 1 201 
6 0 10 0 0 5 1 201 
8 0 8 0 0 8 1 201 
3 0 5 0 0 9 1 201 
0 0 0 0 0 0 1 238 
0 0 0 0 0 0 5 203 206 207 208 211 
3 0 0 0 0 3 2 210 204 
6 0 0 0 0 6 1 205 
1 0 0 0 0 7 1 209 
8 0 0 0 0 8 1 210 
6 0 0 0 0 8 1 210 
2 0 0 0 0 8 1 209 
5 0 0 0 0 9 1 212 
2 0 0 0 0 9 1 212 
2 0 0 0 0 7 1 212 
8 0 0 0 0 10 1 213 
0 0 0 0 0 0 1 238 
0 0 0 0 0 0 4 215 218 219 220 
3 3 0 0 0 0 2 224 216 
10 7 0 0 0 0 1 217 
2 6 0 0 0 0 2 223 221 
3 10 0 0 0 0 2 224 223 
2 6 0 0 0 0 1 221 
2 9 0 0 0 0 1 221 
4 10 0 0 0 0 1 222 
2 5 0 0 0 0 1 225 
6 10 0 0 0 0 1 225 
1 9 0 0 0 0 1 225 
0 0 0 0 0 0 1 238 
0 0 0 0 0 0 1 227 
4 0 3 0 0 0 3 231 229 228 
7 0 6 0 0 0 4 236 235 234 232 
5 0 10 0 0 0 2 235 230 
2 0 7 0 0 0 2 234 232 
3 0 6 0 0 0 1 232 
5 0 7 0 0 0 1 233 
1 0 10 0 0 0 1 237 
8 0 10 0 0 0 1 237 
5 0 6 0 0 0 1 237 
10 0 10 0 0 0 1 237 
0 0 0 0 0 0 1 238 
0 0 0 0 0 0 2 239 251 
0 0 0 0 0 0 3 240 241 244 
6 0 0 3 0 0 3 249 245 243 
3 0 0 10 0 0 2 243 242 
9 0 0 5 0 0 1 245 
6 0 0 7 0 0 2 248 247 
9 0 0 10 0 0 2 249 247 
7 0 0 4 0 0 1 246 
7 0 0 10 0 0 1 247 
4 0 0 7 0 0 1 250 
9 0 0 9 0 0 1 250 
8 0 0 10 0 0 1 250 
0 0 0 0 0 0 1 263 
0 0 0 0 0 0 4 252 253 255 258 
10 4 0 0 0 0 2 261 254 
4 7 0 0 0 0 3 261 259 257 
9 8 0 0 0 0 1 256 
9 6 0 0 0 0 1 256 
1 8 0 0 0 0 2 259 257 
8 8 0 0 0 0 1 260 
7 5 0 0 0 0 1 259 
5 10 0 0 0 0 1 262 
7 9 0 0 0 0 1 262 
7 10 0 0 0 0 1 262 
0 0 0 0 0 0 1 263 
0 0 0 0 0 0 0 
